MARKOV
253
2 2 2 2 2 2 2 2 2 2 2 2 2 2 2 2 2 3 3 3 3 2 2 3 3 3 3 3 3 3 3 3 3 3 3 3 3 3 3 3 3 3 3 3 3 3 3 3 3 3 3 3 3 3 2 2 2 2 2 2 2 2 2 2 2 2 2 2 2 2 2 2 2 2 2 2 2 2 3 3 3 3 2 2 3 3 3 3 3 3 3 3 3 3 3 3 3 3 3 3 3 3 3 3 3 3 3 3 3 3 3 3 3 3 3 2 2 2 2 2 2 2 2 2 2 2 2 2 2 2 2 2 2 2 2 2 2 2 2 3 3 3 3 2 2 3 3 3 3 3 3 3 3 3 3 3 3 3 3 3 3 3 3 3 3 3 3 3 3 3 3 3 3 3 3 3 2 2 2 2 2 2 2 2 2 2 2 2 2 2 2 2 2 2 2 2 2 2 2 2 3 3 3 3 2 2 3 3 3 3 3 3 3 3 3 3 3 3 3 3 3 3 3 3 3 3 3 3 3 3 3 3 3 3 3 3 3 2 2 2 2 2 2 2 2 2 2 2 2 2 2 2 2 
256
1 0
1 1
1 2
1 3
1 4
1 5
1 6
1 7
1 8
1 9
1 10
1 11
1 12
1 13
1 14
1 15
1 16
5 9 2 0 5 17 
5 10 2 1 6 18 
5 11 2 0 7 19 
5 12 2 1 8 20 
3 13 3 21 
3 14 4 22 
4 15 3 1 23 
4 16 4 0 24 
3 21 23 25 
3 24 25 26 
3 17 26 27 
3 18 27 28 
3 22 23 29 
3 24 29 30 
3 17 30 31 
3 18 31 32 
3 21 22 33 
3 23 33 34 
3 24 34 35 
3 17 35 36 
3 18 36 37 
3 19 37 38 
3 20 38 39 
3 21 23 40 
3 17 40 41 
3 19 41 42 
3 22 24 43 
3 18 43 44 
3 20 44 45 
3 23 17 46 
3 24 18 47 
3 21 23 48 
3 17 48 49 
3 19 49 50 
3 22 24 51 
3 18 51 52 
3 20 52 53 
3 16 14 54 
3 13 54 55 
3 10 55 56 
3 15 56 57 
3 9 57 58 
3 12 58 59 
3 11 59 60 
3 28 0 61 
3 32 1 62 
3 39 2 63 
3 42 3 64 
3 45 4 65 
3 46 5 66 
3 47 6 67 
3 50 7 68 
3 53 8 69 
1 70
1 71
1 72
1 73
1 74
1 75
1 76
1 77
5 70 63 61 66 78 
5 71 63 62 67 79 
5 72 63 61 68 80 
5 73 63 62 69 81 
3 74 64 82 
3 75 65 83 
4 76 64 62 84 
4 77 65 61 85 
3 82 84 86 
3 85 86 87 
3 78 87 88 
3 79 88 89 
3 83 84 90 
3 85 90 91 
3 78 91 92 
3 79 92 93 
3 82 83 94 
3 84 94 95 
3 85 95 96 
3 78 96 97 
3 79 97 98 
3 80 98 99 
3 81 99 100 
3 82 84 101 
3 78 101 102 
3 80 102 103 
3 83 85 104 
3 79 104 105 
3 81 105 106 
3 84 78 107 
3 85 79 108 
3 82 84 109 
3 78 109 110 
3 80 110 111 
3 83 85 112 
3 79 112 113 
3 81 113 114 
3 77 75 115 
3 74 115 116 
3 71 116 117 
3 76 117 118 
3 70 118 119 
3 73 119 120 
3 72 120 121 
3 89 61 122 
3 93 62 123 
3 100 63 124 
3 103 64 125 
3 106 65 126 
3 107 66 127 
3 108 67 128 
3 111 68 129 
3 114 69 130 
1 131
1 132
1 133
1 134
1 135
1 136
1 137
1 138
5 131 124 122 127 139 
5 132 124 123 128 140 
5 133 124 122 129 141 
5 134 124 123 130 142 
3 135 125 143 
3 136 126 144 
4 137 125 123 145 
4 138 126 122 146 
3 143 145 147 
3 146 147 148 
3 139 148 149 
3 140 149 150 
3 144 145 151 
3 146 151 152 
3 139 152 153 
3 140 153 154 
3 143 144 155 
3 145 155 156 
3 146 156 157 
3 139 157 158 
3 140 158 159 
3 141 159 160 
3 142 160 161 
3 143 145 162 
3 139 162 163 
3 141 163 164 
3 144 146 165 
3 140 165 166 
3 142 166 167 
3 145 139 168 
3 146 140 169 
3 143 145 170 
3 139 170 171 
3 141 171 172 
3 144 146 173 
3 140 173 174 
3 142 174 175 
3 138 136 176 
3 135 176 177 
3 132 177 178 
3 137 178 179 
3 131 179 180 
3 134 180 181 
3 133 181 182 
3 150 122 183 
3 154 123 184 
3 161 124 185 
3 164 125 186 
3 167 126 187 
3 168 127 188 
3 169 128 189 
3 172 129 190 
3 175 130 191 
1 192
1 193
1 194
1 195
1 196
1 197
1 198
1 199
5 192 185 183 188 200 
5 193 185 184 189 201 
5 194 185 183 190 202 
5 195 185 184 191 203 
3 196 186 204 
3 197 187 205 
4 198 186 184 206 
4 199 187 183 207 
3 204 206 208 
3 207 208 209 
3 200 209 210 
3 201 210 211 
3 205 206 212 
3 207 212 213 
3 200 213 214 
3 201 214 215 
3 204 205 216 
3 206 216 217 
3 207 217 218 
3 200 218 219 
3 201 219 220 
3 202 220 221 
3 203 221 222 
3 204 206 223 
3 200 223 224 
3 202 224 225 
3 205 207 226 
3 201 226 227 
3 203 227 228 
3 206 200 229 
3 207 201 230 
3 204 206 231 
3 200 231 232 
3 202 232 233 
3 205 207 234 
3 201 234 235 
3 203 235 236 
3 199 197 237 
3 196 237 238 
3 193 238 239 
3 198 239 240 
3 192 240 241 
3 195 241 242 
3 194 242 243 
3 211 183 244 
3 215 184 245 
3 222 185 246 
3 225 186 247 
3 228 187 248 
3 229 188 249 
3 230 189 250 
3 233 190 251 
3 236 191 252 
1 244
1 246
1 249

2
 1.0
 0.0

2
 0.0
 1.0

2
 0.0
 1.0

2
 1.0
 0.0

2
 1.0
 0.0

2
 1.0
 0.0

2
 0.0
 1.0

2
 0.0
 1.0

2
 1.0
 0.0

2
 1.0
 1.0

2
 1.0
 1.0

2
 1.0
 1.0

2
 1.0
 1.0

2
 1.0
 1.0

2
 1.0
 1.0

2
 1.0
 1.0

2
 1.0
 1.0

48
 1.0
 0.0
 0.0
 1.0
 0.0
 0.0
 1.0
 0.0
 0.0
 1.0
 0.0
 0.0
 1.0
 0.0
 0.0
 1.0
 0.0
 0.0
 1.0
 0.0
 0.0
 1.0
 0.0
 0.0
 1.0
 0.0
 0.0
 1.0
 0.0
 0.0
 1.0
 0.0
 0.0
 1.0
 0.0
 0.0
 1.0
 0.0
 0.0
 1.0
 0.0
 0.0
 1.0
 0.0
 0.0
 0.0
 0.75
 0.25

48
 1.0
 0.0
 0.0
 1.0
 0.0
 0.0
 1.0
 0.0
 0.0
 1.0
 0.0
 0.0
 1.0
 0.0
 0.0
 1.0
 0.0
 0.0
 1.0
 0.0
 0.0
 1.0
 0.0
 0.0
 1.0
 0.0
 0.0
 1.0
 0.0
 0.0
 1.0
 0.0
 0.0
 1.0
 0.0
 0.0
 1.0
 0.0
 0.0
 1.0
 0.0
 0.0
 1.0
 0.0
 0.0
 0.0
 0.75
 0.25

48
 1.0
 0.0
 0.0
 1.0
 0.0
 0.0
 1.0
 0.0
 0.0
 1.0
 0.0
 0.0
 1.0
 0.0
 0.0
 1.0
 0.0
 0.0
 1.0
 0.0
 0.0
 1.0
 0.0
 0.0
 1.0
 0.0
 0.0
 1.0
 0.0
 0.0
 1.0
 0.0
 0.0
 1.0
 0.0
 0.0
 1.0
 0.0
 0.0
 1.0
 0.0
 0.0
 1.0
 0.0
 0.0
 0.0
 0.75
 0.25

48
 1.0
 0.0
 0.0
 1.0
 0.0
 0.0
 1.0
 0.0
 0.0
 1.0
 0.0
 0.0
 1.0
 0.0
 0.0
 1.0
 0.0
 0.0
 1.0
 0.0
 0.0
 1.0
 0.0
 0.0
 1.0
 0.0
 0.0
 1.0
 0.0
 0.0
 1.0
 0.0
 0.0
 1.0
 0.0
 0.0
 1.0
 0.0
 0.0
 1.0
 0.0
 0.0
 1.0
 0.0
 0.0
 0.0
 0.75
 0.25

8
 1.0
 0.0
 1.0
 0.0
 1.0
 0.0
 0.0
 1.0

8
 1.0
 0.0
 1.0
 0.0
 1.0
 0.0
 0.0
 1.0

24
 1.0
 0.0
 0.0
 1.0
 0.0
 0.0
 1.0
 0.0
 0.0
 1.0
 0.0
 0.0
 1.0
 0.0
 0.0
 1.0
 0.0
 0.0
 1.0
 0.0
 0.0
 0.0
 0.75
 0.25

24
 1.0
 0.0
 0.0
 1.0
 0.0
 0.0
 1.0
 0.0
 0.0
 1.0
 0.0
 0.0
 1.0
 0.0
 0.0
 1.0
 0.0
 0.0
 1.0
 0.0
 0.0
 0.0
 0.75
 0.25

18
 1.0
 0.0
 0.0
 0.0
 1.0
 0.0
 0.0
 1.0
 0.0
 0.0
 1.0
 0.0
 0.0
 0.0
 0.0
 0.0
 0.0
 0.0

27
 1.0
 0.0
 0.0
 0.0
 1.0
 0.0
 0.0
 0.0
 1.0
 0.0
 0.0
 1.0
 0.0
 0.0
 0.0
 0.0
 0.0
 0.0
 1.0
 0.0
 0.0
 0.0
 1.0
 0.0
 0.0
 0.0
 1.0

27
 1.0
 0.0
 0.0
 0.0
 1.0
 0.0
 0.0
 0.0
 1.0
 0.0
 0.0
 1.0
 0.0
 0.0
 0.0
 0.0
 0.0
 0.0
 1.0
 0.0
 0.0
 0.0
 1.0
 0.0
 0.0
 0.0
 1.0

27
 1.0
 0.0
 0.0
 0.0
 1.0
 0.0
 0.0
 0.0
 1.0
 0.0
 1.0
 0.0
 0.0
 0.0
 0.0
 0.0
 0.0
 0.0
 0.0
 1.0
 0.0
 0.0
 0.0
 0.0
 0.0
 0.0
 0.0

18
 1.0
 0.0
 0.0
 0.0
 0.0
 1.0
 1.0
 0.0
 0.0
 0.0
 1.0
 0.0
 0.0
 0.0
 0.0
 0.0
 1.0
 0.0

27
 1.0
 0.0
 0.0
 0.0
 1.0
 0.0
 0.0
 0.0
 1.0
 0.0
 1.0
 0.0
 0.0
 0.0
 0.0
 0.0
 0.0
 0.0
 0.0
 1.0
 0.0
 0.0
 0.0
 0.0
 0.0
 0.0
 0.0

27
 1.0
 0.0
 0.0
 0.0
 1.0
 0.0
 0.0
 0.0
 1.0
 0.0
 1.0
 0.0
 0.0
 0.0
 0.0
 0.0
 0.0
 0.0
 0.0
 1.0
 0.0
 0.0
 0.0
 0.0
 0.0
 0.0
 0.0

27
 1.0
 0.0
 0.0
 0.0
 1.0
 0.0
 0.0
 0.0
 1.0
 0.0
 0.0
 1.0
 0.0
 0.0
 0.0
 0.0
 0.0
 0.0
 1.0
 0.0
 0.0
 0.0
 1.0
 0.0
 0.0
 0.0
 1.0

12
 1.0
 0.0
 0.0
 0.0
 1.0
 0.0
 0.0
 1.0
 0.0
 0.0
 0.0
 0.0

27
 1.0
 0.0
 0.0
 0.0
 1.0
 0.0
 0.0
 0.0
 1.0
 0.0
 1.0
 0.0
 0.0
 0.0
 0.0
 0.0
 0.0
 0.0
 0.0
 1.0
 0.0
 0.0
 0.0
 0.0
 0.0
 0.0
 0.0

27
 1.0
 0.0
 0.0
 0.0
 1.0
 0.0
 0.0
 0.0
 1.0
 0.0
 1.0
 0.0
 0.0
 0.0
 0.0
 0.0
 0.0
 0.0
 0.0
 1.0
 0.0
 0.0
 0.0
 0.0
 0.0
 0.0
 0.0

27
 1.0
 0.0
 0.0
 0.0
 1.0
 0.0
 0.0
 0.0
 1.0
 0.0
 0.0
 1.0
 0.0
 0.0
 0.0
 0.0
 0.0
 0.0
 1.0
 0.0
 0.0
 0.0
 1.0
 0.0
 0.0
 0.0
 1.0

27
 1.0
 0.0
 0.0
 0.0
 1.0
 0.0
 0.0
 0.0
 1.0
 0.0
 0.0
 1.0
 0.0
 0.0
 0.0
 0.0
 0.0
 0.0
 1.0
 0.0
 0.0
 0.0
 1.0
 0.0
 0.0
 0.0
 1.0

27
 1.0
 0.0
 0.0
 0.0
 1.0
 0.0
 0.0
 0.0
 1.0
 0.0
 0.0
 1.0
 0.0
 0.0
 0.0
 0.0
 0.0
 0.0
 1.0
 0.0
 0.0
 0.0
 0.0
 0.0
 0.0
 0.0
 0.0

27
 1.0
 0.0
 0.0
 0.0
 1.0
 0.0
 0.0
 0.0
 1.0
 0.0
 0.0
 1.0
 0.0
 0.0
 0.0
 0.0
 0.0
 0.0
 1.0
 0.0
 0.0
 0.0
 0.0
 0.0
 0.0
 0.0
 0.0

18
 1.0
 0.0
 0.0
 0.0
 0.0
 1.0
 0.0
 0.0
 1.0
 0.0
 0.0
 1.0
 0.0
 0.0
 0.0
 0.0
 0.0
 0.0

27
 1.0
 0.0
 0.0
 0.0
 1.0
 0.0
 0.0
 0.0
 1.0
 0.0
 1.0
 0.0
 0.0
 0.0
 0.0
 0.0
 0.0
 0.0
 1.0
 0.0
 0.0
 0.0
 1.0
 0.0
 0.0
 0.0
 1.0

27
 1.0
 0.0
 0.0
 0.0
 1.0
 0.0
 0.0
 0.0
 1.0
 0.0
 1.0
 0.0
 0.0
 0.0
 0.0
 0.0
 0.0
 0.0
 1.0
 0.0
 0.0
 0.0
 0.0
 0.0
 0.0
 0.0
 0.0

18
 1.0
 0.0
 0.0
 0.0
 0.0
 1.0
 0.0
 0.0
 1.0
 0.0
 0.0
 1.0
 0.0
 0.0
 0.0
 0.0
 0.0
 0.0

27
 1.0
 0.0
 0.0
 0.0
 1.0
 0.0
 0.0
 0.0
 1.0
 0.0
 1.0
 0.0
 0.0
 0.0
 0.0
 0.0
 0.0
 0.0
 1.0
 0.0
 0.0
 0.0
 1.0
 0.0
 0.0
 0.0
 1.0

27
 1.0
 0.0
 0.0
 0.0
 1.0
 0.0
 0.0
 0.0
 1.0
 0.0
 1.0
 0.0
 0.0
 0.0
 0.0
 0.0
 0.0
 0.0
 1.0
 0.0
 0.0
 0.0
 0.0
 0.0
 0.0
 0.0
 0.0

27
 1.0
 0.0
 0.0
 0.0
 0.0
 1.0
 0.0
 0.0
 1.0
 0.0
 1.0
 0.0
 0.0
 0.0
 0.0
 0.0
 0.0
 0.0
 1.0
 0.0
 0.0
 0.0
 0.0
 1.0
 0.0
 0.0
 1.0

27
 1.0
 0.0
 0.0
 0.0
 0.0
 1.0
 0.0
 0.0
 1.0
 0.0
 1.0
 0.0
 0.0
 0.0
 0.0
 0.0
 0.0
 0.0
 1.0
 0.0
 0.0
 0.0
 0.0
 1.0
 0.0
 0.0
 1.0

18
 1.0
 0.0
 0.0
 1.0
 0.0
 0.0
 0.0
 1.0
 0.0
 0.0
 1.0
 0.0
 0.0
 1.0
 0.0
 0.0
 0.0
 0.0

27
 1.0
 0.0
 0.0
 0.0
 1.0
 0.0
 0.0
 0.0
 1.0
 1.0
 0.0
 0.0
 0.0
 1.0
 0.0
 0.0
 0.0
 1.0
 0.0
 1.0
 0.0
 0.0
 0.0
 0.0
 0.0
 0.0
 0.0

27
 1.0
 0.0
 0.0
 0.0
 1.0
 0.0
 0.0
 0.0
 1.0
 0.0
 0.0
 1.0
 0.0
 0.0
 0.0
 0.0
 0.0
 0.0
 1.0
 0.0
 0.0
 0.0
 0.0
 0.0
 0.0
 0.0
 0.0

18
 1.0
 0.0
 0.0
 1.0
 0.0
 0.0
 0.0
 1.0
 0.0
 0.0
 1.0
 0.0
 0.0
 1.0
 0.0
 0.0
 0.0
 0.0

27
 1.0
 0.0
 0.0
 0.0
 1.0
 0.0
 0.0
 0.0
 1.0
 1.0
 0.0
 0.0
 0.0
 1.0
 0.0
 0.0
 0.0
 1.0
 0.0
 1.0
 0.0
 0.0
 0.0
 0.0
 0.0
 0.0
 0.0

27
 1.0
 0.0
 0.0
 0.0
 1.0
 0.0
 0.0
 0.0
 1.0
 0.0
 0.0
 1.0
 0.0
 0.0
 0.0
 0.0
 0.0
 0.0
 1.0
 0.0
 0.0
 0.0
 0.0
 0.0
 0.0
 0.0
 0.0

8
 1.0
 0.0
 0.0
 1.0
 0.0
 1.0
 0.0
 0.0

8
 1.0
 0.0
 0.0
 1.0
 0.0
 1.0
 0.0
 0.0

8
 1.0
 0.0
 0.0
 1.0
 0.0
 1.0
 0.0
 0.0

8
 1.0
 0.0
 0.0
 1.0
 0.0
 1.0
 0.0
 0.0

8
 1.0
 0.0
 0.0
 1.0
 0.0
 1.0
 0.0
 0.0

8
 1.0
 0.0
 0.0
 1.0
 0.0
 1.0
 0.0
 0.0

8
 1.0
 0.0
 0.0
 1.0
 0.0
 1.0
 0.0
 0.0

12
 1.0
 0.0
 0.0
 1.0
 0.0
 1.0
 0.0
 1.0
 1.0
 0.0
 1.0
 0.0

12
 1.0
 0.0
 0.0
 1.0
 0.0
 1.0
 0.0
 1.0
 1.0
 0.0
 1.0
 0.0

12
 1.0
 0.0
 0.0
 1.0
 0.0
 1.0
 0.0
 1.0
 1.0
 0.0
 1.0
 0.0

12
 1.0
 0.0
 0.0
 1.0
 0.0
 1.0
 0.0
 1.0
 1.0
 0.0
 1.0
 0.0

12
 1.0
 0.0
 0.0
 1.0
 0.0
 1.0
 0.0
 1.0
 1.0
 0.0
 1.0
 0.0

12
 1.0
 0.0
 0.0
 1.0
 0.0
 1.0
 0.0
 1.0
 1.0
 0.0
 1.0
 0.0

12
 1.0
 0.0
 0.0
 1.0
 0.0
 1.0
 0.0
 1.0
 1.0
 0.0
 1.0
 0.0

12
 1.0
 0.0
 0.0
 1.0
 0.0
 1.0
 0.0
 1.0
 1.0
 0.0
 1.0
 0.0

12
 1.0
 0.0
 0.0
 1.0
 0.0
 1.0
 0.0
 1.0
 1.0
 0.0
 1.0
 0.0

2
 1.0
 1.0

2
 1.0
 1.0

2
 1.0
 1.0

2
 1.0
 1.0

2
 1.0
 1.0

2
 1.0
 1.0

2
 1.0
 1.0

2
 1.0
 1.0

48
 1.0
 0.0
 0.0
 1.0
 0.0
 0.0
 1.0
 0.0
 0.0
 1.0
 0.0
 0.0
 1.0
 0.0
 0.0
 1.0
 0.0
 0.0
 1.0
 0.0
 0.0
 1.0
 0.0
 0.0
 1.0
 0.0
 0.0
 1.0
 0.0
 0.0
 1.0
 0.0
 0.0
 1.0
 0.0
 0.0
 1.0
 0.0
 0.0
 1.0
 0.0
 0.0
 1.0
 0.0
 0.0
 0.0
 0.75
 0.25

48
 1.0
 0.0
 0.0
 1.0
 0.0
 0.0
 1.0
 0.0
 0.0
 1.0
 0.0
 0.0
 1.0
 0.0
 0.0
 1.0
 0.0
 0.0
 1.0
 0.0
 0.0
 1.0
 0.0
 0.0
 1.0
 0.0
 0.0
 1.0
 0.0
 0.0
 1.0
 0.0
 0.0
 1.0
 0.0
 0.0
 1.0
 0.0
 0.0
 1.0
 0.0
 0.0
 1.0
 0.0
 0.0
 0.0
 0.75
 0.25

48
 1.0
 0.0
 0.0
 1.0
 0.0
 0.0
 1.0
 0.0
 0.0
 1.0
 0.0
 0.0
 1.0
 0.0
 0.0
 1.0
 0.0
 0.0
 1.0
 0.0
 0.0
 1.0
 0.0
 0.0
 1.0
 0.0
 0.0
 1.0
 0.0
 0.0
 1.0
 0.0
 0.0
 1.0
 0.0
 0.0
 1.0
 0.0
 0.0
 1.0
 0.0
 0.0
 1.0
 0.0
 0.0
 0.0
 0.75
 0.25

48
 1.0
 0.0
 0.0
 1.0
 0.0
 0.0
 1.0
 0.0
 0.0
 1.0
 0.0
 0.0
 1.0
 0.0
 0.0
 1.0
 0.0
 0.0
 1.0
 0.0
 0.0
 1.0
 0.0
 0.0
 1.0
 0.0
 0.0
 1.0
 0.0
 0.0
 1.0
 0.0
 0.0
 1.0
 0.0
 0.0
 1.0
 0.0
 0.0
 1.0
 0.0
 0.0
 1.0
 0.0
 0.0
 0.0
 0.75
 0.25

8
 1.0
 0.0
 1.0
 0.0
 1.0
 0.0
 0.0
 1.0

8
 1.0
 0.0
 1.0
 0.0
 1.0
 0.0
 0.0
 1.0

24
 1.0
 0.0
 0.0
 1.0
 0.0
 0.0
 1.0
 0.0
 0.0
 1.0
 0.0
 0.0
 1.0
 0.0
 0.0
 1.0
 0.0
 0.0
 1.0
 0.0
 0.0
 0.0
 0.75
 0.25

24
 1.0
 0.0
 0.0
 1.0
 0.0
 0.0
 1.0
 0.0
 0.0
 1.0
 0.0
 0.0
 1.0
 0.0
 0.0
 1.0
 0.0
 0.0
 1.0
 0.0
 0.0
 0.0
 0.75
 0.25

18
 1.0
 0.0
 0.0
 0.0
 1.0
 0.0
 0.0
 1.0
 0.0
 0.0
 1.0
 0.0
 0.0
 0.0
 0.0
 0.0
 0.0
 0.0

27
 1.0
 0.0
 0.0
 0.0
 1.0
 0.0
 0.0
 0.0
 1.0
 0.0
 0.0
 1.0
 0.0
 0.0
 0.0
 0.0
 0.0
 0.0
 1.0
 0.0
 0.0
 0.0
 1.0
 0.0
 0.0
 0.0
 1.0

27
 1.0
 0.0
 0.0
 0.0
 1.0
 0.0
 0.0
 0.0
 1.0
 0.0
 0.0
 1.0
 0.0
 0.0
 0.0
 0.0
 0.0
 0.0
 1.0
 0.0
 0.0
 0.0
 1.0
 0.0
 0.0
 0.0
 1.0

27
 1.0
 0.0
 0.0
 0.0
 1.0
 0.0
 0.0
 0.0
 1.0
 0.0
 1.0
 0.0
 0.0
 0.0
 0.0
 0.0
 0.0
 0.0
 0.0
 1.0
 0.0
 0.0
 0.0
 0.0
 0.0
 0.0
 0.0

18
 1.0
 0.0
 0.0
 0.0
 0.0
 1.0
 1.0
 0.0
 0.0
 0.0
 1.0
 0.0
 0.0
 0.0
 0.0
 0.0
 1.0
 0.0

27
 1.0
 0.0
 0.0
 0.0
 1.0
 0.0
 0.0
 0.0
 1.0
 0.0
 1.0
 0.0
 0.0
 0.0
 0.0
 0.0
 0.0
 0.0
 0.0
 1.0
 0.0
 0.0
 0.0
 0.0
 0.0
 0.0
 0.0

27
 1.0
 0.0
 0.0
 0.0
 1.0
 0.0
 0.0
 0.0
 1.0
 0.0
 1.0
 0.0
 0.0
 0.0
 0.0
 0.0
 0.0
 0.0
 0.0
 1.0
 0.0
 0.0
 0.0
 0.0
 0.0
 0.0
 0.0

27
 1.0
 0.0
 0.0
 0.0
 1.0
 0.0
 0.0
 0.0
 1.0
 0.0
 0.0
 1.0
 0.0
 0.0
 0.0
 0.0
 0.0
 0.0
 1.0
 0.0
 0.0
 0.0
 1.0
 0.0
 0.0
 0.0
 1.0

12
 1.0
 0.0
 0.0
 0.0
 1.0
 0.0
 0.0
 1.0
 0.0
 0.0
 0.0
 0.0

27
 1.0
 0.0
 0.0
 0.0
 1.0
 0.0
 0.0
 0.0
 1.0
 0.0
 1.0
 0.0
 0.0
 0.0
 0.0
 0.0
 0.0
 0.0
 0.0
 1.0
 0.0
 0.0
 0.0
 0.0
 0.0
 0.0
 0.0

27
 1.0
 0.0
 0.0
 0.0
 1.0
 0.0
 0.0
 0.0
 1.0
 0.0
 1.0
 0.0
 0.0
 0.0
 0.0
 0.0
 0.0
 0.0
 0.0
 1.0
 0.0
 0.0
 0.0
 0.0
 0.0
 0.0
 0.0

27
 1.0
 0.0
 0.0
 0.0
 1.0
 0.0
 0.0
 0.0
 1.0
 0.0
 0.0
 1.0
 0.0
 0.0
 0.0
 0.0
 0.0
 0.0
 1.0
 0.0
 0.0
 0.0
 1.0
 0.0
 0.0
 0.0
 1.0

27
 1.0
 0.0
 0.0
 0.0
 1.0
 0.0
 0.0
 0.0
 1.0
 0.0
 0.0
 1.0
 0.0
 0.0
 0.0
 0.0
 0.0
 0.0
 1.0
 0.0
 0.0
 0.0
 1.0
 0.0
 0.0
 0.0
 1.0

27
 1.0
 0.0
 0.0
 0.0
 1.0
 0.0
 0.0
 0.0
 1.0
 0.0
 0.0
 1.0
 0.0
 0.0
 0.0
 0.0
 0.0
 0.0
 1.0
 0.0
 0.0
 0.0
 0.0
 0.0
 0.0
 0.0
 0.0

27
 1.0
 0.0
 0.0
 0.0
 1.0
 0.0
 0.0
 0.0
 1.0
 0.0
 0.0
 1.0
 0.0
 0.0
 0.0
 0.0
 0.0
 0.0
 1.0
 0.0
 0.0
 0.0
 0.0
 0.0
 0.0
 0.0
 0.0

18
 1.0
 0.0
 0.0
 0.0
 0.0
 1.0
 0.0
 0.0
 1.0
 0.0
 0.0
 1.0
 0.0
 0.0
 0.0
 0.0
 0.0
 0.0

27
 1.0
 0.0
 0.0
 0.0
 1.0
 0.0
 0.0
 0.0
 1.0
 0.0
 1.0
 0.0
 0.0
 0.0
 0.0
 0.0
 0.0
 0.0
 1.0
 0.0
 0.0
 0.0
 1.0
 0.0
 0.0
 0.0
 1.0

27
 1.0
 0.0
 0.0
 0.0
 1.0
 0.0
 0.0
 0.0
 1.0
 0.0
 1.0
 0.0
 0.0
 0.0
 0.0
 0.0
 0.0
 0.0
 1.0
 0.0
 0.0
 0.0
 0.0
 0.0
 0.0
 0.0
 0.0

18
 1.0
 0.0
 0.0
 0.0
 0.0
 1.0
 0.0
 0.0
 1.0
 0.0
 0.0
 1.0
 0.0
 0.0
 0.0
 0.0
 0.0
 0.0

27
 1.0
 0.0
 0.0
 0.0
 1.0
 0.0
 0.0
 0.0
 1.0
 0.0
 1.0
 0.0
 0.0
 0.0
 0.0
 0.0
 0.0
 0.0
 1.0
 0.0
 0.0
 0.0
 1.0
 0.0
 0.0
 0.0
 1.0

27
 1.0
 0.0
 0.0
 0.0
 1.0
 0.0
 0.0
 0.0
 1.0
 0.0
 1.0
 0.0
 0.0
 0.0
 0.0
 0.0
 0.0
 0.0
 1.0
 0.0
 0.0
 0.0
 0.0
 0.0
 0.0
 0.0
 0.0

27
 1.0
 0.0
 0.0
 0.0
 0.0
 1.0
 0.0
 0.0
 1.0
 0.0
 1.0
 0.0
 0.0
 0.0
 0.0
 0.0
 0.0
 0.0
 1.0
 0.0
 0.0
 0.0
 0.0
 1.0
 0.0
 0.0
 1.0

27
 1.0
 0.0
 0.0
 0.0
 0.0
 1.0
 0.0
 0.0
 1.0
 0.0
 1.0
 0.0
 0.0
 0.0
 0.0
 0.0
 0.0
 0.0
 1.0
 0.0
 0.0
 0.0
 0.0
 1.0
 0.0
 0.0
 1.0

18
 1.0
 0.0
 0.0
 1.0
 0.0
 0.0
 0.0
 1.0
 0.0
 0.0
 1.0
 0.0
 0.0
 1.0
 0.0
 0.0
 0.0
 0.0

27
 1.0
 0.0
 0.0
 0.0
 1.0
 0.0
 0.0
 0.0
 1.0
 1.0
 0.0
 0.0
 0.0
 1.0
 0.0
 0.0
 0.0
 1.0
 0.0
 1.0
 0.0
 0.0
 0.0
 0.0
 0.0
 0.0
 0.0

27
 1.0
 0.0
 0.0
 0.0
 1.0
 0.0
 0.0
 0.0
 1.0
 0.0
 0.0
 1.0
 0.0
 0.0
 0.0
 0.0
 0.0
 0.0
 1.0
 0.0
 0.0
 0.0
 0.0
 0.0
 0.0
 0.0
 0.0

18
 1.0
 0.0
 0.0
 1.0
 0.0
 0.0
 0.0
 1.0
 0.0
 0.0
 1.0
 0.0
 0.0
 1.0
 0.0
 0.0
 0.0
 0.0

27
 1.0
 0.0
 0.0
 0.0
 1.0
 0.0
 0.0
 0.0
 1.0
 1.0
 0.0
 0.0
 0.0
 1.0
 0.0
 0.0
 0.0
 1.0
 0.0
 1.0
 0.0
 0.0
 0.0
 0.0
 0.0
 0.0
 0.0

27
 1.0
 0.0
 0.0
 0.0
 1.0
 0.0
 0.0
 0.0
 1.0
 0.0
 0.0
 1.0
 0.0
 0.0
 0.0
 0.0
 0.0
 0.0
 1.0
 0.0
 0.0
 0.0
 0.0
 0.0
 0.0
 0.0
 0.0

8
 1.0
 0.0
 0.0
 1.0
 0.0
 1.0
 0.0
 0.0

8
 1.0
 0.0
 0.0
 1.0
 0.0
 1.0
 0.0
 0.0

8
 1.0
 0.0
 0.0
 1.0
 0.0
 1.0
 0.0
 0.0

8
 1.0
 0.0
 0.0
 1.0
 0.0
 1.0
 0.0
 0.0

8
 1.0
 0.0
 0.0
 1.0
 0.0
 1.0
 0.0
 0.0

8
 1.0
 0.0
 0.0
 1.0
 0.0
 1.0
 0.0
 0.0

8
 1.0
 0.0
 0.0
 1.0
 0.0
 1.0
 0.0
 0.0

12
 1.0
 0.0
 0.0
 1.0
 0.0
 1.0
 0.0
 1.0
 1.0
 0.0
 1.0
 0.0

12
 1.0
 0.0
 0.0
 1.0
 0.0
 1.0
 0.0
 1.0
 1.0
 0.0
 1.0
 0.0

12
 1.0
 0.0
 0.0
 1.0
 0.0
 1.0
 0.0
 1.0
 1.0
 0.0
 1.0
 0.0

12
 1.0
 0.0
 0.0
 1.0
 0.0
 1.0
 0.0
 1.0
 1.0
 0.0
 1.0
 0.0

12
 1.0
 0.0
 0.0
 1.0
 0.0
 1.0
 0.0
 1.0
 1.0
 0.0
 1.0
 0.0

12
 1.0
 0.0
 0.0
 1.0
 0.0
 1.0
 0.0
 1.0
 1.0
 0.0
 1.0
 0.0

12
 1.0
 0.0
 0.0
 1.0
 0.0
 1.0
 0.0
 1.0
 1.0
 0.0
 1.0
 0.0

12
 1.0
 0.0
 0.0
 1.0
 0.0
 1.0
 0.0
 1.0
 1.0
 0.0
 1.0
 0.0

12
 1.0
 0.0
 0.0
 1.0
 0.0
 1.0
 0.0
 1.0
 1.0
 0.0
 1.0
 0.0

2
 1.0
 1.0

2
 1.0
 1.0

2
 1.0
 1.0

2
 1.0
 1.0

2
 1.0
 1.0

2
 1.0
 1.0

2
 1.0
 1.0

2
 1.0
 1.0

48
 1.0
 0.0
 0.0
 1.0
 0.0
 0.0
 1.0
 0.0
 0.0
 1.0
 0.0
 0.0
 1.0
 0.0
 0.0
 1.0
 0.0
 0.0
 1.0
 0.0
 0.0
 1.0
 0.0
 0.0
 1.0
 0.0
 0.0
 1.0
 0.0
 0.0
 1.0
 0.0
 0.0
 1.0
 0.0
 0.0
 1.0
 0.0
 0.0
 1.0
 0.0
 0.0
 1.0
 0.0
 0.0
 0.0
 0.75
 0.25

48
 1.0
 0.0
 0.0
 1.0
 0.0
 0.0
 1.0
 0.0
 0.0
 1.0
 0.0
 0.0
 1.0
 0.0
 0.0
 1.0
 0.0
 0.0
 1.0
 0.0
 0.0
 1.0
 0.0
 0.0
 1.0
 0.0
 0.0
 1.0
 0.0
 0.0
 1.0
 0.0
 0.0
 1.0
 0.0
 0.0
 1.0
 0.0
 0.0
 1.0
 0.0
 0.0
 1.0
 0.0
 0.0
 0.0
 0.75
 0.25

48
 1.0
 0.0
 0.0
 1.0
 0.0
 0.0
 1.0
 0.0
 0.0
 1.0
 0.0
 0.0
 1.0
 0.0
 0.0
 1.0
 0.0
 0.0
 1.0
 0.0
 0.0
 1.0
 0.0
 0.0
 1.0
 0.0
 0.0
 1.0
 0.0
 0.0
 1.0
 0.0
 0.0
 1.0
 0.0
 0.0
 1.0
 0.0
 0.0
 1.0
 0.0
 0.0
 1.0
 0.0
 0.0
 0.0
 0.75
 0.25

48
 1.0
 0.0
 0.0
 1.0
 0.0
 0.0
 1.0
 0.0
 0.0
 1.0
 0.0
 0.0
 1.0
 0.0
 0.0
 1.0
 0.0
 0.0
 1.0
 0.0
 0.0
 1.0
 0.0
 0.0
 1.0
 0.0
 0.0
 1.0
 0.0
 0.0
 1.0
 0.0
 0.0
 1.0
 0.0
 0.0
 1.0
 0.0
 0.0
 1.0
 0.0
 0.0
 1.0
 0.0
 0.0
 0.0
 0.75
 0.25

8
 1.0
 0.0
 1.0
 0.0
 1.0
 0.0
 0.0
 1.0

8
 1.0
 0.0
 1.0
 0.0
 1.0
 0.0
 0.0
 1.0

24
 1.0
 0.0
 0.0
 1.0
 0.0
 0.0
 1.0
 0.0
 0.0
 1.0
 0.0
 0.0
 1.0
 0.0
 0.0
 1.0
 0.0
 0.0
 1.0
 0.0
 0.0
 0.0
 0.75
 0.25

24
 1.0
 0.0
 0.0
 1.0
 0.0
 0.0
 1.0
 0.0
 0.0
 1.0
 0.0
 0.0
 1.0
 0.0
 0.0
 1.0
 0.0
 0.0
 1.0
 0.0
 0.0
 0.0
 0.75
 0.25

18
 1.0
 0.0
 0.0
 0.0
 1.0
 0.0
 0.0
 1.0
 0.0
 0.0
 1.0
 0.0
 0.0
 0.0
 0.0
 0.0
 0.0
 0.0

27
 1.0
 0.0
 0.0
 0.0
 1.0
 0.0
 0.0
 0.0
 1.0
 0.0
 0.0
 1.0
 0.0
 0.0
 0.0
 0.0
 0.0
 0.0
 1.0
 0.0
 0.0
 0.0
 1.0
 0.0
 0.0
 0.0
 1.0

27
 1.0
 0.0
 0.0
 0.0
 1.0
 0.0
 0.0
 0.0
 1.0
 0.0
 0.0
 1.0
 0.0
 0.0
 0.0
 0.0
 0.0
 0.0
 1.0
 0.0
 0.0
 0.0
 1.0
 0.0
 0.0
 0.0
 1.0

27
 1.0
 0.0
 0.0
 0.0
 1.0
 0.0
 0.0
 0.0
 1.0
 0.0
 1.0
 0.0
 0.0
 0.0
 0.0
 0.0
 0.0
 0.0
 0.0
 1.0
 0.0
 0.0
 0.0
 0.0
 0.0
 0.0
 0.0

18
 1.0
 0.0
 0.0
 0.0
 0.0
 1.0
 1.0
 0.0
 0.0
 0.0
 1.0
 0.0
 0.0
 0.0
 0.0
 0.0
 1.0
 0.0

27
 1.0
 0.0
 0.0
 0.0
 1.0
 0.0
 0.0
 0.0
 1.0
 0.0
 1.0
 0.0
 0.0
 0.0
 0.0
 0.0
 0.0
 0.0
 0.0
 1.0
 0.0
 0.0
 0.0
 0.0
 0.0
 0.0
 0.0

27
 1.0
 0.0
 0.0
 0.0
 1.0
 0.0
 0.0
 0.0
 1.0
 0.0
 1.0
 0.0
 0.0
 0.0
 0.0
 0.0
 0.0
 0.0
 0.0
 1.0
 0.0
 0.0
 0.0
 0.0
 0.0
 0.0
 0.0

27
 1.0
 0.0
 0.0
 0.0
 1.0
 0.0
 0.0
 0.0
 1.0
 0.0
 0.0
 1.0
 0.0
 0.0
 0.0
 0.0
 0.0
 0.0
 1.0
 0.0
 0.0
 0.0
 1.0
 0.0
 0.0
 0.0
 1.0

12
 1.0
 0.0
 0.0
 0.0
 1.0
 0.0
 0.0
 1.0
 0.0
 0.0
 0.0
 0.0

27
 1.0
 0.0
 0.0
 0.0
 1.0
 0.0
 0.0
 0.0
 1.0
 0.0
 1.0
 0.0
 0.0
 0.0
 0.0
 0.0
 0.0
 0.0
 0.0
 1.0
 0.0
 0.0
 0.0
 0.0
 0.0
 0.0
 0.0

27
 1.0
 0.0
 0.0
 0.0
 1.0
 0.0
 0.0
 0.0
 1.0
 0.0
 1.0
 0.0
 0.0
 0.0
 0.0
 0.0
 0.0
 0.0
 0.0
 1.0
 0.0
 0.0
 0.0
 0.0
 0.0
 0.0
 0.0

27
 1.0
 0.0
 0.0
 0.0
 1.0
 0.0
 0.0
 0.0
 1.0
 0.0
 0.0
 1.0
 0.0
 0.0
 0.0
 0.0
 0.0
 0.0
 1.0
 0.0
 0.0
 0.0
 1.0
 0.0
 0.0
 0.0
 1.0

27
 1.0
 0.0
 0.0
 0.0
 1.0
 0.0
 0.0
 0.0
 1.0
 0.0
 0.0
 1.0
 0.0
 0.0
 0.0
 0.0
 0.0
 0.0
 1.0
 0.0
 0.0
 0.0
 1.0
 0.0
 0.0
 0.0
 1.0

27
 1.0
 0.0
 0.0
 0.0
 1.0
 0.0
 0.0
 0.0
 1.0
 0.0
 0.0
 1.0
 0.0
 0.0
 0.0
 0.0
 0.0
 0.0
 1.0
 0.0
 0.0
 0.0
 0.0
 0.0
 0.0
 0.0
 0.0

27
 1.0
 0.0
 0.0
 0.0
 1.0
 0.0
 0.0
 0.0
 1.0
 0.0
 0.0
 1.0
 0.0
 0.0
 0.0
 0.0
 0.0
 0.0
 1.0
 0.0
 0.0
 0.0
 0.0
 0.0
 0.0
 0.0
 0.0

18
 1.0
 0.0
 0.0
 0.0
 0.0
 1.0
 0.0
 0.0
 1.0
 0.0
 0.0
 1.0
 0.0
 0.0
 0.0
 0.0
 0.0
 0.0

27
 1.0
 0.0
 0.0
 0.0
 1.0
 0.0
 0.0
 0.0
 1.0
 0.0
 1.0
 0.0
 0.0
 0.0
 0.0
 0.0
 0.0
 0.0
 1.0
 0.0
 0.0
 0.0
 1.0
 0.0
 0.0
 0.0
 1.0

27
 1.0
 0.0
 0.0
 0.0
 1.0
 0.0
 0.0
 0.0
 1.0
 0.0
 1.0
 0.0
 0.0
 0.0
 0.0
 0.0
 0.0
 0.0
 1.0
 0.0
 0.0
 0.0
 0.0
 0.0
 0.0
 0.0
 0.0

18
 1.0
 0.0
 0.0
 0.0
 0.0
 1.0
 0.0
 0.0
 1.0
 0.0
 0.0
 1.0
 0.0
 0.0
 0.0
 0.0
 0.0
 0.0

27
 1.0
 0.0
 0.0
 0.0
 1.0
 0.0
 0.0
 0.0
 1.0
 0.0
 1.0
 0.0
 0.0
 0.0
 0.0
 0.0
 0.0
 0.0
 1.0
 0.0
 0.0
 0.0
 1.0
 0.0
 0.0
 0.0
 1.0

27
 1.0
 0.0
 0.0
 0.0
 1.0
 0.0
 0.0
 0.0
 1.0
 0.0
 1.0
 0.0
 0.0
 0.0
 0.0
 0.0
 0.0
 0.0
 1.0
 0.0
 0.0
 0.0
 0.0
 0.0
 0.0
 0.0
 0.0

27
 1.0
 0.0
 0.0
 0.0
 0.0
 1.0
 0.0
 0.0
 1.0
 0.0
 1.0
 0.0
 0.0
 0.0
 0.0
 0.0
 0.0
 0.0
 1.0
 0.0
 0.0
 0.0
 0.0
 1.0
 0.0
 0.0
 1.0

27
 1.0
 0.0
 0.0
 0.0
 0.0
 1.0
 0.0
 0.0
 1.0
 0.0
 1.0
 0.0
 0.0
 0.0
 0.0
 0.0
 0.0
 0.0
 1.0
 0.0
 0.0
 0.0
 0.0
 1.0
 0.0
 0.0
 1.0

18
 1.0
 0.0
 0.0
 1.0
 0.0
 0.0
 0.0
 1.0
 0.0
 0.0
 1.0
 0.0
 0.0
 1.0
 0.0
 0.0
 0.0
 0.0

27
 1.0
 0.0
 0.0
 0.0
 1.0
 0.0
 0.0
 0.0
 1.0
 1.0
 0.0
 0.0
 0.0
 1.0
 0.0
 0.0
 0.0
 1.0
 0.0
 1.0
 0.0
 0.0
 0.0
 0.0
 0.0
 0.0
 0.0

27
 1.0
 0.0
 0.0
 0.0
 1.0
 0.0
 0.0
 0.0
 1.0
 0.0
 0.0
 1.0
 0.0
 0.0
 0.0
 0.0
 0.0
 0.0
 1.0
 0.0
 0.0
 0.0
 0.0
 0.0
 0.0
 0.0
 0.0

18
 1.0
 0.0
 0.0
 1.0
 0.0
 0.0
 0.0
 1.0
 0.0
 0.0
 1.0
 0.0
 0.0
 1.0
 0.0
 0.0
 0.0
 0.0

27
 1.0
 0.0
 0.0
 0.0
 1.0
 0.0
 0.0
 0.0
 1.0
 1.0
 0.0
 0.0
 0.0
 1.0
 0.0
 0.0
 0.0
 1.0
 0.0
 1.0
 0.0
 0.0
 0.0
 0.0
 0.0
 0.0
 0.0

27
 1.0
 0.0
 0.0
 0.0
 1.0
 0.0
 0.0
 0.0
 1.0
 0.0
 0.0
 1.0
 0.0
 0.0
 0.0
 0.0
 0.0
 0.0
 1.0
 0.0
 0.0
 0.0
 0.0
 0.0
 0.0
 0.0
 0.0

8
 1.0
 0.0
 0.0
 1.0
 0.0
 1.0
 0.0
 0.0

8
 1.0
 0.0
 0.0
 1.0
 0.0
 1.0
 0.0
 0.0

8
 1.0
 0.0
 0.0
 1.0
 0.0
 1.0
 0.0
 0.0

8
 1.0
 0.0
 0.0
 1.0
 0.0
 1.0
 0.0
 0.0

8
 1.0
 0.0
 0.0
 1.0
 0.0
 1.0
 0.0
 0.0

8
 1.0
 0.0
 0.0
 1.0
 0.0
 1.0
 0.0
 0.0

8
 1.0
 0.0
 0.0
 1.0
 0.0
 1.0
 0.0
 0.0

12
 1.0
 0.0
 0.0
 1.0
 0.0
 1.0
 0.0
 1.0
 1.0
 0.0
 1.0
 0.0

12
 1.0
 0.0
 0.0
 1.0
 0.0
 1.0
 0.0
 1.0
 1.0
 0.0
 1.0
 0.0

12
 1.0
 0.0
 0.0
 1.0
 0.0
 1.0
 0.0
 1.0
 1.0
 0.0
 1.0
 0.0

12
 1.0
 0.0
 0.0
 1.0
 0.0
 1.0
 0.0
 1.0
 1.0
 0.0
 1.0
 0.0

12
 1.0
 0.0
 0.0
 1.0
 0.0
 1.0
 0.0
 1.0
 1.0
 0.0
 1.0
 0.0

12
 1.0
 0.0
 0.0
 1.0
 0.0
 1.0
 0.0
 1.0
 1.0
 0.0
 1.0
 0.0

12
 1.0
 0.0
 0.0
 1.0
 0.0
 1.0
 0.0
 1.0
 1.0
 0.0
 1.0
 0.0

12
 1.0
 0.0
 0.0
 1.0
 0.0
 1.0
 0.0
 1.0
 1.0
 0.0
 1.0
 0.0

12
 1.0
 0.0
 0.0
 1.0
 0.0
 1.0
 0.0
 1.0
 1.0
 0.0
 1.0
 0.0

2
 1.0
 1.0

2
 1.0
 1.0

2
 1.0
 1.0

2
 1.0
 1.0

2
 1.0
 1.0

2
 1.0
 1.0

2
 1.0
 1.0

2
 1.0
 1.0

48
 1.0
 0.0
 0.0
 1.0
 0.0
 0.0
 1.0
 0.0
 0.0
 1.0
 0.0
 0.0
 1.0
 0.0
 0.0
 1.0
 0.0
 0.0
 1.0
 0.0
 0.0
 1.0
 0.0
 0.0
 1.0
 0.0
 0.0
 1.0
 0.0
 0.0
 1.0
 0.0
 0.0
 1.0
 0.0
 0.0
 1.0
 0.0
 0.0
 1.0
 0.0
 0.0
 1.0
 0.0
 0.0
 0.0
 0.75
 0.25

48
 1.0
 0.0
 0.0
 1.0
 0.0
 0.0
 1.0
 0.0
 0.0
 1.0
 0.0
 0.0
 1.0
 0.0
 0.0
 1.0
 0.0
 0.0
 1.0
 0.0
 0.0
 1.0
 0.0
 0.0
 1.0
 0.0
 0.0
 1.0
 0.0
 0.0
 1.0
 0.0
 0.0
 1.0
 0.0
 0.0
 1.0
 0.0
 0.0
 1.0
 0.0
 0.0
 1.0
 0.0
 0.0
 0.0
 0.75
 0.25

48
 1.0
 0.0
 0.0
 1.0
 0.0
 0.0
 1.0
 0.0
 0.0
 1.0
 0.0
 0.0
 1.0
 0.0
 0.0
 1.0
 0.0
 0.0
 1.0
 0.0
 0.0
 1.0
 0.0
 0.0
 1.0
 0.0
 0.0
 1.0
 0.0
 0.0
 1.0
 0.0
 0.0
 1.0
 0.0
 0.0
 1.0
 0.0
 0.0
 1.0
 0.0
 0.0
 1.0
 0.0
 0.0
 0.0
 0.75
 0.25

48
 1.0
 0.0
 0.0
 1.0
 0.0
 0.0
 1.0
 0.0
 0.0
 1.0
 0.0
 0.0
 1.0
 0.0
 0.0
 1.0
 0.0
 0.0
 1.0
 0.0
 0.0
 1.0
 0.0
 0.0
 1.0
 0.0
 0.0
 1.0
 0.0
 0.0
 1.0
 0.0
 0.0
 1.0
 0.0
 0.0
 1.0
 0.0
 0.0
 1.0
 0.0
 0.0
 1.0
 0.0
 0.0
 0.0
 0.75
 0.25

8
 1.0
 0.0
 1.0
 0.0
 1.0
 0.0
 0.0
 1.0

8
 1.0
 0.0
 1.0
 0.0
 1.0
 0.0
 0.0
 1.0

24
 1.0
 0.0
 0.0
 1.0
 0.0
 0.0
 1.0
 0.0
 0.0
 1.0
 0.0
 0.0
 1.0
 0.0
 0.0
 1.0
 0.0
 0.0
 1.0
 0.0
 0.0
 0.0
 0.75
 0.25

24
 1.0
 0.0
 0.0
 1.0
 0.0
 0.0
 1.0
 0.0
 0.0
 1.0
 0.0
 0.0
 1.0
 0.0
 0.0
 1.0
 0.0
 0.0
 1.0
 0.0
 0.0
 0.0
 0.75
 0.25

18
 1.0
 0.0
 0.0
 0.0
 1.0
 0.0
 0.0
 1.0
 0.0
 0.0
 1.0
 0.0
 0.0
 0.0
 0.0
 0.0
 0.0
 0.0

27
 1.0
 0.0
 0.0
 0.0
 1.0
 0.0
 0.0
 0.0
 1.0
 0.0
 0.0
 1.0
 0.0
 0.0
 0.0
 0.0
 0.0
 0.0
 1.0
 0.0
 0.0
 0.0
 1.0
 0.0
 0.0
 0.0
 1.0

27
 1.0
 0.0
 0.0
 0.0
 1.0
 0.0
 0.0
 0.0
 1.0
 0.0
 0.0
 1.0
 0.0
 0.0
 0.0
 0.0
 0.0
 0.0
 1.0
 0.0
 0.0
 0.0
 1.0
 0.0
 0.0
 0.0
 1.0

27
 1.0
 0.0
 0.0
 0.0
 1.0
 0.0
 0.0
 0.0
 1.0
 0.0
 1.0
 0.0
 0.0
 0.0
 0.0
 0.0
 0.0
 0.0
 0.0
 1.0
 0.0
 0.0
 0.0
 0.0
 0.0
 0.0
 0.0

18
 1.0
 0.0
 0.0
 0.0
 0.0
 1.0
 1.0
 0.0
 0.0
 0.0
 1.0
 0.0
 0.0
 0.0
 0.0
 0.0
 1.0
 0.0

27
 1.0
 0.0
 0.0
 0.0
 1.0
 0.0
 0.0
 0.0
 1.0
 0.0
 1.0
 0.0
 0.0
 0.0
 0.0
 0.0
 0.0
 0.0
 0.0
 1.0
 0.0
 0.0
 0.0
 0.0
 0.0
 0.0
 0.0

27
 1.0
 0.0
 0.0
 0.0
 1.0
 0.0
 0.0
 0.0
 1.0
 0.0
 1.0
 0.0
 0.0
 0.0
 0.0
 0.0
 0.0
 0.0
 0.0
 1.0
 0.0
 0.0
 0.0
 0.0
 0.0
 0.0
 0.0

27
 1.0
 0.0
 0.0
 0.0
 1.0
 0.0
 0.0
 0.0
 1.0
 0.0
 0.0
 1.0
 0.0
 0.0
 0.0
 0.0
 0.0
 0.0
 1.0
 0.0
 0.0
 0.0
 1.0
 0.0
 0.0
 0.0
 1.0

12
 1.0
 0.0
 0.0
 0.0
 1.0
 0.0
 0.0
 1.0
 0.0
 0.0
 0.0
 0.0

27
 1.0
 0.0
 0.0
 0.0
 1.0
 0.0
 0.0
 0.0
 1.0
 0.0
 1.0
 0.0
 0.0
 0.0
 0.0
 0.0
 0.0
 0.0
 0.0
 1.0
 0.0
 0.0
 0.0
 0.0
 0.0
 0.0
 0.0

27
 1.0
 0.0
 0.0
 0.0
 1.0
 0.0
 0.0
 0.0
 1.0
 0.0
 1.0
 0.0
 0.0
 0.0
 0.0
 0.0
 0.0
 0.0
 0.0
 1.0
 0.0
 0.0
 0.0
 0.0
 0.0
 0.0
 0.0

27
 1.0
 0.0
 0.0
 0.0
 1.0
 0.0
 0.0
 0.0
 1.0
 0.0
 0.0
 1.0
 0.0
 0.0
 0.0
 0.0
 0.0
 0.0
 1.0
 0.0
 0.0
 0.0
 1.0
 0.0
 0.0
 0.0
 1.0

27
 1.0
 0.0
 0.0
 0.0
 1.0
 0.0
 0.0
 0.0
 1.0
 0.0
 0.0
 1.0
 0.0
 0.0
 0.0
 0.0
 0.0
 0.0
 1.0
 0.0
 0.0
 0.0
 1.0
 0.0
 0.0
 0.0
 1.0

27
 1.0
 0.0
 0.0
 0.0
 1.0
 0.0
 0.0
 0.0
 1.0
 0.0
 0.0
 1.0
 0.0
 0.0
 0.0
 0.0
 0.0
 0.0
 1.0
 0.0
 0.0
 0.0
 0.0
 0.0
 0.0
 0.0
 0.0

27
 1.0
 0.0
 0.0
 0.0
 1.0
 0.0
 0.0
 0.0
 1.0
 0.0
 0.0
 1.0
 0.0
 0.0
 0.0
 0.0
 0.0
 0.0
 1.0
 0.0
 0.0
 0.0
 0.0
 0.0
 0.0
 0.0
 0.0

18
 1.0
 0.0
 0.0
 0.0
 0.0
 1.0
 0.0
 0.0
 1.0
 0.0
 0.0
 1.0
 0.0
 0.0
 0.0
 0.0
 0.0
 0.0

27
 1.0
 0.0
 0.0
 0.0
 1.0
 0.0
 0.0
 0.0
 1.0
 0.0
 1.0
 0.0
 0.0
 0.0
 0.0
 0.0
 0.0
 0.0
 1.0
 0.0
 0.0
 0.0
 1.0
 0.0
 0.0
 0.0
 1.0

27
 1.0
 0.0
 0.0
 0.0
 1.0
 0.0
 0.0
 0.0
 1.0
 0.0
 1.0
 0.0
 0.0
 0.0
 0.0
 0.0
 0.0
 0.0
 1.0
 0.0
 0.0
 0.0
 0.0
 0.0
 0.0
 0.0
 0.0

18
 1.0
 0.0
 0.0
 0.0
 0.0
 1.0
 0.0
 0.0
 1.0
 0.0
 0.0
 1.0
 0.0
 0.0
 0.0
 0.0
 0.0
 0.0

27
 1.0
 0.0
 0.0
 0.0
 1.0
 0.0
 0.0
 0.0
 1.0
 0.0
 1.0
 0.0
 0.0
 0.0
 0.0
 0.0
 0.0
 0.0
 1.0
 0.0
 0.0
 0.0
 1.0
 0.0
 0.0
 0.0
 1.0

27
 1.0
 0.0
 0.0
 0.0
 1.0
 0.0
 0.0
 0.0
 1.0
 0.0
 1.0
 0.0
 0.0
 0.0
 0.0
 0.0
 0.0
 0.0
 1.0
 0.0
 0.0
 0.0
 0.0
 0.0
 0.0
 0.0
 0.0

27
 1.0
 0.0
 0.0
 0.0
 0.0
 1.0
 0.0
 0.0
 1.0
 0.0
 1.0
 0.0
 0.0
 0.0
 0.0
 0.0
 0.0
 0.0
 1.0
 0.0
 0.0
 0.0
 0.0
 1.0
 0.0
 0.0
 1.0

27
 1.0
 0.0
 0.0
 0.0
 0.0
 1.0
 0.0
 0.0
 1.0
 0.0
 1.0
 0.0
 0.0
 0.0
 0.0
 0.0
 0.0
 0.0
 1.0
 0.0
 0.0
 0.0
 0.0
 1.0
 0.0
 0.0
 1.0

18
 1.0
 0.0
 0.0
 1.0
 0.0
 0.0
 0.0
 1.0
 0.0
 0.0
 1.0
 0.0
 0.0
 1.0
 0.0
 0.0
 0.0
 0.0

27
 1.0
 0.0
 0.0
 0.0
 1.0
 0.0
 0.0
 0.0
 1.0
 1.0
 0.0
 0.0
 0.0
 1.0
 0.0
 0.0
 0.0
 1.0
 0.0
 1.0
 0.0
 0.0
 0.0
 0.0
 0.0
 0.0
 0.0

27
 1.0
 0.0
 0.0
 0.0
 1.0
 0.0
 0.0
 0.0
 1.0
 0.0
 0.0
 1.0
 0.0
 0.0
 0.0
 0.0
 0.0
 0.0
 1.0
 0.0
 0.0
 0.0
 0.0
 0.0
 0.0
 0.0
 0.0

18
 1.0
 0.0
 0.0
 1.0
 0.0
 0.0
 0.0
 1.0
 0.0
 0.0
 1.0
 0.0
 0.0
 1.0
 0.0
 0.0
 0.0
 0.0

27
 1.0
 0.0
 0.0
 0.0
 1.0
 0.0
 0.0
 0.0
 1.0
 1.0
 0.0
 0.0
 0.0
 1.0
 0.0
 0.0
 0.0
 1.0
 0.0
 1.0
 0.0
 0.0
 0.0
 0.0
 0.0
 0.0
 0.0

27
 1.0
 0.0
 0.0
 0.0
 1.0
 0.0
 0.0
 0.0
 1.0
 0.0
 0.0
 1.0
 0.0
 0.0
 0.0
 0.0
 0.0
 0.0
 1.0
 0.0
 0.0
 0.0
 0.0
 0.0
 0.0
 0.0
 0.0

8
 1.0
 0.0
 0.0
 1.0
 0.0
 1.0
 0.0
 0.0

8
 1.0
 0.0
 0.0
 1.0
 0.0
 1.0
 0.0
 0.0

8
 1.0
 0.0
 0.0
 1.0
 0.0
 1.0
 0.0
 0.0

8
 1.0
 0.0
 0.0
 1.0
 0.0
 1.0
 0.0
 0.0

8
 1.0
 0.0
 0.0
 1.0
 0.0
 1.0
 0.0
 0.0

8
 1.0
 0.0
 0.0
 1.0
 0.0
 1.0
 0.0
 0.0

8
 1.0
 0.0
 0.0
 1.0
 0.0
 1.0
 0.0
 0.0

12
 1.0
 0.0
 0.0
 1.0
 0.0
 1.0
 0.0
 1.0
 1.0
 0.0
 1.0
 0.0

12
 1.0
 0.0
 0.0
 1.0
 0.0
 1.0
 0.0
 1.0
 1.0
 0.0
 1.0
 0.0

12
 1.0
 0.0
 0.0
 1.0
 0.0
 1.0
 0.0
 1.0
 1.0
 0.0
 1.0
 0.0

12
 1.0
 0.0
 0.0
 1.0
 0.0
 1.0
 0.0
 1.0
 1.0
 0.0
 1.0
 0.0

12
 1.0
 0.0
 0.0
 1.0
 0.0
 1.0
 0.0
 1.0
 1.0
 0.0
 1.0
 0.0

12
 1.0
 0.0
 0.0
 1.0
 0.0
 1.0
 0.0
 1.0
 1.0
 0.0
 1.0
 0.0

12
 1.0
 0.0
 0.0
 1.0
 0.0
 1.0
 0.0
 1.0
 1.0
 0.0
 1.0
 0.0

12
 1.0
 0.0
 0.0
 1.0
 0.0
 1.0
 0.0
 1.0
 1.0
 0.0
 1.0
 0.0

12
 1.0
 0.0
 0.0
 1.0
 0.0
 1.0
 0.0
 1.0
 1.0
 0.0
 1.0
 0.0

2
 0.0
 1.0

2
 0.0
 1.0

2
 0.0
 1.0

